
Log started (V12.10.0.0) Sat Apr  3 16:17:34 2021


Problem 'asset.lp' read.
Read time = 0.00 sec. (0.16 ticks)
New value for default parallel thread count: 1
New value for time limit in seconds: 300
Version identifier: 12.10.0.0 | 2019-11-26 | 843d4de
CPXPARAM_Threads                                 1
CPXPARAM_TimeLimit                               300
Found incumbent of value -0.883640 after 0.00 sec. (0.08 ticks)
Tried aggregator 3 times.
MIP Presolve eliminated 669 rows and 444 columns.
MIP Presolve modified 1446 coefficients.
Aggregator did 361 substitutions.
Reduced MIP has 524 rows, 567 columns, and 2375 nonzeros.
Reduced MIP has 473 binaries, 64 generals, 0 SOSs, and 0 indicators.
Presolve time = 0.01 sec. (5.07 ticks)
Probing fixed 165 vars, tightened 14 bounds.
Probing time = 0.00 sec. (1.32 ticks)
Cover probing fixed 0 vars, tightened 65 bounds.
Tried aggregator 2 times.
MIP Presolve eliminated 232 rows and 220 columns.
MIP Presolve modified 79 coefficients.
Aggregator did 2 substitutions.
Reduced MIP has 290 rows, 343 columns, and 1115 nonzeros.
Reduced MIP has 266 binaries, 48 generals, 0 SOSs, and 0 indicators.
Presolve time = 0.00 sec. (2.46 ticks)
Probing time = 0.00 sec. (0.54 ticks)
Tried aggregator 1 time.
Detecting symmetries...
MIP Presolve modified 40 coefficients.
Reduced MIP has 290 rows, 343 columns, and 1115 nonzeros.
Reduced MIP has 266 binaries, 48 generals, 0 SOSs, and 0 indicators.
Presolve time = 0.00 sec. (0.78 ticks)
Probing time = 0.00 sec. (0.53 ticks)
Clique table members: 635.
MIP emphasis: balance optimality and feasibility.
MIP search method: dynamic search.
Parallel mode: none, using 1 thread.
Root relaxation solution time = 0.00 sec. (2.18 ticks)

        Nodes                                         Cuts/
   Node  Left     Objective  IInf  Best Integer    Best Bound    ItCnt     Gap

*     0+    0                           -0.8836      358.4864              --- 
      0     0      215.2107    89       -0.8836      215.2107      241     --- 
      0     0      208.9011    89       -0.8836     Cuts: 140      377     --- 
      0     0      207.0444    89       -0.8836      Cuts: 86      475     --- 
*     0+    0                          153.9898      207.0444            34.45%
      0     0      206.2084    89      153.9898      Cuts: 99      534   33.91%
      0     0      206.2037    89      153.9898      Cuts: 39      576   33.91%
      0     0      206.0696    89      153.9898      Cuts: 31      613   33.82%
*     0+    0                          176.4411      206.0696            16.79%
Detecting symmetries...
      0     0      206.0693    89      176.4411      Cuts: 16      633   16.79%
      0     0      205.9400    89      176.4411   ZeroHalf: 8      666   16.72%
      0     0      205.8592    89      176.4411      Cuts: 49      726   16.67%
      0     0      205.5422    89      176.4411      Cuts: 48      769   16.49%
      0     0      205.5317    89      176.4411      Cuts: 37      809   16.49%
*     0+    0                          177.3317      205.5317            15.90%
Detecting symmetries...
      0     2      205.5317    98      177.3317      205.5317      809   15.90%
Elapsed time = 0.08 sec. (71.44 ticks, tree = 0.01 MB, solutions = 3)
*    50+   42                          182.0898      205.5053            12.86%
*   150+  123                          182.0930      205.4733            12.84%
*   240+  176                          189.5304      205.4500             8.40%
*   340+  255                          189.5307      205.3835             8.36%
    550   390      202.9427    68      189.5307      205.2875     9406    8.31%

Performing restart 1

Repeating presolve.
Tried aggregator 1 time.
MIP Presolve eliminated 11 rows and 16 columns.
MIP Presolve modified 90 coefficients.
Reduced MIP has 279 rows, 327 columns, and 1011 nonzeros.
Reduced MIP has 251 binaries, 48 generals, 0 SOSs, and 0 indicators.
Presolve time = 0.00 sec. (0.80 ticks)
Tried aggregator 1 time.
Reduced MIP has 279 rows, 327 columns, and 1011 nonzeros.
Reduced MIP has 251 binaries, 48 generals, 0 SOSs, and 0 indicators.
Presolve time = 0.00 sec. (0.74 ticks)
Represolve time = 0.01 sec. (4.69 ticks)
    944     0      205.0029    92      189.5307      Cuts: 55    17081    7.79%
    944     0      204.3325    92      189.5307      Cuts: 76    17171    7.79%
    944     0      204.1619    92      189.5307      Cuts: 71    17244    7.72%
    944     0      203.2772    92      189.5307      Cuts: 85    17358    7.25%
    944     0      202.9804    92      189.5307      Cuts: 78    17435    7.10%
    944     0      202.6155    92      189.5307      Cuts: 56    17483    6.90%
    944     0      202.0318    92      189.5307      Cuts: 66    17569    6.60%
    944     0      201.9188    92      189.5307      Cuts: 55    17674    6.54%
    944     0      201.9173    92      189.5307      Cuts: 38    17711    6.54%
    944     0      201.9168    92      189.5307      Cuts: 29    17735    6.54%
    944     0      201.9168    92      189.5307      Cuts: 13    17744    6.54%
    944     0      201.9166    92      189.5307       Cuts: 5    17751    6.54%
    944     0      201.9076    92      189.5307      Cuts: 21    17776    6.53%
    944     0      201.8705    92      189.5307      Cuts: 10    17827    6.51%
    944     0      201.8704    92      189.5307      Cuts: 30    17853    6.51%
    944     0      201.8704    92      189.5307      Cuts: 16    17866    6.51%
*   944+    0                          189.5314      201.8704             6.51%
    944     0        cutoff            189.5314      201.8704    17866    6.51%
    944     2      201.8704    87      189.5314      201.8390    17866    6.49%
    969    21      196.4637    44      189.5314      201.2011    18890    6.16%
   1139   127        cutoff            189.5314      200.5348    21884    5.81%
*  1204+  162                          189.8603      199.7547             5.21%
*  1214+  164                          189.8622      199.7547             5.21%
*  1254+  191                          189.8623      199.7543             5.21%
*  1301   191      integral     0      189.8638      199.7538    25613    5.21%
*  1303   188      integral     0      189.8638      199.7538    25615    5.21%
   1349   192      194.7787    28      189.8638      199.7249    26994    5.19%
   1554   247      191.0335    32      189.8638      198.3263    32937    4.46%
   1766   263        cutoff            189.8638      196.0293    39240    3.25%
   2121   155      189.8642    27      189.8638      192.7142    46231    1.50%

GUB cover cuts applied:  2
Clique cuts applied:  37
Cover cuts applied:  7
Implied bound cuts applied:  39
Flow cuts applied:  5
Mixed integer rounding cuts applied:  32
Zero-half cuts applied:  31
Lift and project cuts applied:  20
Gomory fractional cuts applied:  19

Root node processing (before b&c):
  Real time             =    0.08 sec. (71.59 ticks)
Sequential b&c:
  Real time             =    2.45 sec. (2588.28 ticks)
                          ------------
Total (root+branch&cut) =    2.54 sec. (2659.87 ticks)

Solution pool: 14 solutions saved.

MIP - Integer optimal, tolerance (0.0001/1e-06):  Objective =  1.8986377837e+02
Current MIP best bound =  1.8986753426e+02 (gap = 0.00375589, 0.00%)
Solution time =    2.54 sec.  Iterations = 47961  Nodes = 2289 (61)
Deterministic time = 2659.87 ticks  (1048.88 ticks/sec)


Incumbent solution
Variable Name           Solution Value
F                           205.000000
f1                            0.906222
f2                           14.230000
y33                           1.000000
y101                          1.000000
y68                           1.000000
y123                          1.000000
y26                           1.000000
y74                           1.000000
y92                           1.000000
y4                            1.000000
y69                           1.000000
y210                          1.000000
y140                          1.000000
y155                          1.000000
s2                            6.000000
s7                            6.000000
s17                           6.000000
s25                           6.000000
s29                           6.000000
s33                           6.525834
s36                           6.000000
s39                           6.000000
s65                           6.000000
s100                          6.000000
s101                          6.353333
s105                          6.000000
s147                          6.000000
s151                          6.000000
s178                          6.000000
s187                          6.000000
s213                          6.000000
s234                          6.030000
s43                           6.040000
s200                          6.040000
s82                           6.050000
s223                          6.050000
s185                          6.090000
s204                          6.180000
s106                          6.220000
s209                          6.240000
s160                          6.290000
s68                           6.410000
s123                          7.115764
s26                           7.344636
s74                           7.459736
s103                          6.460000
s92                           7.247644
s135                          6.600000
s98                           6.650000
s4                            7.520000
s215                          6.780000
s69                           7.225982
s210                          7.873525
s73                           6.890000
s201                          6.920000
s85                           6.930000
s161                          6.940000
s140                          7.508432
s155                          7.498431
x34x69x1                      1.000000
x128x155x1                    1.000000
x231x33x2                     2.000000
x136x101x2                    1.000000
x105x74x2                     1.000000
x18x155x2                     1.000000
x111x92x2                     2.000000
x128x74x2                     1.000000
x136x101x3                    1.000000
x34x69x3                      1.000000
x18x123x3                     1.000000
x19x26x3                      2.000000
x99x68x3                      1.000000
x99x123x3                     1.000000
x41x68x3                      1.000000
x33x210x2                     2.000000
x101x4x2                      1.000000
x101x4x3                      1.000000
x68x140x3                     2.000000
x123x0x3                      2.000000
x26x0x3                       2.000000
x74x0x2                       2.000000
x92x0x2                       2.000000
x4x0x2                        1.000000
x4x0x3                        1.000000
x69x0x1                       1.000000
x69x0x3                       1.000000
x210x0x2                      2.000000
x140x0x3                      2.000000
x155x0x1                      1.000000
x155x0x2                      1.000000
s231                          5.067531
z231z33z2                     1.000000
z231z210z2                    1.000000
s136                          5.080000
z136z101z2                    1.000000
z136z101z3                    1.000000
z136z210z2                    1.000000
z136z73z3                     1.000000
z136z85z3                     1.000000
z136z140z3                    1.000000
z105z74z2                     1.000000
s34                           5.485462
z34z69z1                      1.000000
z34z69z3                      1.000000
s18                           5.550000
z18z123z3                     1.000000
z18z155z2                     1.000000
s19                           5.730000
z19z26z3                      1.000000
s111                          5.730000
z111z74z2                     1.000000
z111z92z2                     1.000000
z111z210z2                    1.000000
s128                          5.830000
z128z74z2                     1.000000
z128z155z1                    1.000000
s99                           4.532780
z99z68z3                      1.000000
z99z123z3                     1.000000
z99z26z3                      1.000000
z99z73z3                      1.000000
z99z85z3                      1.000000
z99z140z3                     1.000000
s41                           4.599950
z41z68z3                      1.000000
z41z123z3                     1.000000
z41z26z3                      1.000000
z41z73z3                      1.000000
z41z85z3                      1.000000
z41z140z3                     1.000000
z33z210z2                     1.000000
z101z4z2                      1.000000
z101z4z3                      1.000000
z68z140z3                     1.000000
All other variables in the range 1-1376 are 0.
